c random cnf
p cnf 50 50
31 -48 0
16 49 0
-8 -24 0
-7 38 0
24 34 0
25 28 0
8 33 0
1 -20 0
-3 5 0
44 -50 0
13 46 0
26 -35 0
-5 -28 0
-44 45 0
-18 29 0
-27 47 0
-19 -29 0
-5 25 0
4 -38 0
-35 40 0
-38 -46 0
23 -45 0
37 47 0
-6 -11 0
-13 31 0
-10 -42 0
-21 40 0
-21 -46 0
-10 12 0
-2 15 0
-39 -40 0
11 22 0
-7 50 0
-7 -44 0
23 -42 0
-22 -33 0
-2 -37 0
23 40 0
-11 -27 0
17 33 0
-7 -33 0
36 39 0
9 13 0
17 22 0
-25 35 0
-6 -15 0
11 16 0
-5 -48 0
-15 27 0
-31 47 0
